25
    1    10    10
    2     4     4
    3    18    18
    4     9     9
    5     4     4
    6    18    18
    7    13    13
    8     6     6
    9    14    14
   10    12    12
   11    20    20
   12    11    11
   13     7     7
   14    12    12
   15    10    10
   16     6     6
   17    19    19
   18     1     1
   19     4     4
   20     5     5
   21     6     6
   22     9     9
   23     1     1
   24    13    13
   25    10    10
104
